( 88 12
(13 25 37 49 61 73 85 2 3 4 5 6 7 8 9 10 11 12 23 34 45 56 67 78 1)
(14 26 38 50 62 74 86 12 3 4 5 6 7 8 9 10 11 13 24 35 46 57 68 79 1 2)
(15 27 39 51 63 75 87 13 23 4 5 6 7 8 9 10 11 14 25 36 47 58 69 80 2 1 3)
(16 28 40 52 64 76 88 14 24 34 5 6 7 8 9 10 11 15 26 37 48 59 70 81 3 2 1 4)
(17 29 41 53 65 77 15 25 35 45 6 7 8 9 10 11 16 27 38 49 60 71 82 4 3 2 1 5)
(18 30 42 54 66 16 26 36 46 56 7 8 9 10 11 17 28 39 50 61 72 83 5 4 3 2 1 6)
(19 31 43 55 17 27 37 47 57 67 8 9 10 11 18 29 40 51 62 73 84 6 5 4 3 2 1 7)
(20 32 44 18 28 38 48 58 68 78 9 10 11 19 30 41 52 63 74 85 7 6 5 4 3 2 1 8)
(21 33 19 29 39 49 59 69 79 10 11 20 31 42 53 64 75 86 8 7 6 5 4 3 2 1 9)
(22 20 30 40 50 60 70 80 11 21 32 43 54 65 76 87 9 8 7 6 5 4 3 2 1 10)
(21 31 41 51 61 71 81 22 33 44 55 66 77 88 10 9 8 7 6 5 4 3 2 1 11)
(24 36 48 60 72 84 13 14 15 16 17 18 19 20 21 22 23 34 45 56 67 78 2 1 12)
(25 37 49 61 73 85 23 14 15 16 17 18 19 20 21 22 24 35 46 57 68 79 12 3 2 1 13)
(26 38 50 62 74 86 24 34 15 16 17 18 19 20 21 22 25 36 47 58 69 80 13 12 4 3 2 14)
(27 39 51 63 75 87 25 35 45 16 17 18 19 20 21 22 26 37 48 59 70 81 14 13 12 5 4 3 15)
(28 40 52 64 76 88 26 36 46 56 17 18 19 20 21 22 27 38 49 60 71 82 15 14 13 12 6 5 4 16)
(29 41 53 65 77 27 37 47 57 67 18 19 20 21 22 28 39 50 61 72 83 16 15 14 13 12 7 6 5 17)
(30 42 54 66 28 38 48 58 68 78 19 20 21 22 29 40 51 62 73 84 17 16 15 14 13 12 8 7 6 18)
(31 43 55 29 39 49 59 69 79 20 21 22 30 41 52 63 74 85 18 17 16 15 14 13 12 9 8 7 19)
(32 44 30 40 50 60 70 80 21 22 31 42 53 64 75 86 19 18 17 16 15 14 13 12 10 9 8 20)
(33 31 41 51 61 71 81 22 32 43 54 65 76 87 20 19 18 17 16 15 14 13 12 11 10 9 21)
(32 42 52 62 72 82 33 44 55 66 77 88 21 20 19 18 17 16 15 14 13 12 11 10 22)
(35 47 59 71 83 24 25 26 27 28 29 30 31 32 33 34 45 56 67 78 13 12 3 1 23)
(36 48 60 72 84 34 25 26 27 28 29 30 31 32 33 35 46 57 68 79 23 14 13 12 4 2 24)
(37 49 61 73 85 35 45 26 27 28 29 30 31 32 33 36 47 58 69 80 24 23 15 14 13 5 3 1 25)
(38 50 62 74 86 36 46 56 27 28 29 30 31 32 33 37 48 59 70 81 25 24 23 16 15 14 6 4 2 26)
(39 51 63 75 87 37 47 57 67 28 29 30 31 32 33 38 49 60 71 82 26 25 24 23 17 16 15 7 5 3 27)
(40 52 64 76 88 38 48 58 68 78 29 30 31 32 33 39 50 61 72 83 27 26 25 24 23 18 17 16 8 6 4 28)
(41 53 65 77 39 49 59 69 79 30 31 32 33 40 51 62 73 84 28 27 26 25 24 23 19 18 17 9 7 5 29)
(42 54 66 40 50 60 70 80 31 32 33 41 52 63 74 85 29 28 27 26 25 24 23 20 19 18 10 8 6 30)
(43 55 41 51 61 71 81 32 33 42 53 64 75 86 30 29 28 27 26 25 24 23 21 20 19 11 9 7 31)
(44 42 52 62 72 82 33 43 54 65 76 87 31 30 29 28 27 26 25 24 23 22 21 20 10 8 32)
(43 53 63 73 83 44 55 66 77 88 32 31 30 29 28 27 26 25 24 23 22 21 11 9 33)
(46 58 70 82 35 36 37 38 39 40 41 42 43 44 45 56 67 78 24 23 14 12 4 1 34)
(47 59 71 83 45 36 37 38 39 40 41 42 43 44 46 57 68 79 34 25 24 23 15 13 5 2 35)
(48 60 72 84 46 56 37 38 39 40 41 42 43 44 47 58 69 80 35 34 26 25 24 16 14 12 6 3 36)
(49 61 73 85 47 57 67 38 39 40 41 42 43 44 48 59 70 81 36 35 34 27 26 25 17 15 13 7 4 1 37)
(50 62 74 86 48 58 68 78 39 40 41 42 43 44 49 60 71 82 37 36 35 34 28 27 26 18 16 14 8 5 2 38)
(51 63 75 87 49 59 69 79 40 41 42 43 44 50 61 72 83 38 37 36 35 34 29 28 27 19 17 15 9 6 3 39)
(52 64 76 88 50 60 70 80 41 42 43 44 51 62 73 84 39 38 37 36 35 34 30 29 28 20 18 16 10 7 4 40)
(53 65 77 51 61 71 81 42 43 44 52 63 74 85 40 39 38 37 36 35 34 31 30 29 21 19 17 11 8 5 41)
(54 66 52 62 72 82 43 44 53 64 75 86 41 40 39 38 37 36 35 34 32 31 30 22 20 18 9 6 42)
(55 53 63 73 83 44 54 65 76 87 42 41 40 39 38 37 36 35 34 33 32 31 21 19 10 7 43)
(54 64 74 84 55 66 77 88 43 42 41 40 39 38 37 36 35 34 33 32 22 20 11 8 44)
(57 69 81 46 47 48 49 50 51 52 53 54 55 56 67 78 35 34 25 23 15 12 5 1 45)
(58 70 82 56 47 48 49 50 51 52 53 54 55 57 68 79 45 36 35 34 26 24 16 13 6 2 46)
(59 71 83 57 67 48 49 50 51 52 53 54 55 58 69 80 46 45 37 36 35 27 25 23 17 14 7 3 47)
(60 72 84 58 68 78 49 50 51 52 53 54 55 59 70 81 47 46 45 38 37 36 28 26 24 18 15 12 8 4 48)
(61 73 85 59 69 79 50 51 52 53 54 55 60 71 82 48 47 46 45 39 38 37 29 27 25 19 16 13 9 5 1 49)
(62 74 86 60 70 80 51 52 53 54 55 61 72 83 49 48 47 46 45 40 39 38 30 28 26 20 17 14 10 6 2 50)
(63 75 87 61 71 81 52 53 54 55 62 73 84 50 49 48 47 46 45 41 40 39 31 29 27 21 18 15 11 7 3 51)
(64 76 88 62 72 82 53 54 55 63 74 85 51 50 49 48 47 46 45 42 41 40 32 30 28 22 19 16 8 4 52)
(65 77 63 73 83 54 55 64 75 86 52 51 50 49 48 47 46 45 43 42 41 33 31 29 20 17 9 5 53)
(66 64 74 84 55 65 76 87 53 52 51 50 49 48 47 46 45 44 43 42 32 30 21 18 10 6 54)
(65 75 85 66 77 88 54 53 52 51 50 49 48 47 46 45 44 43 33 31 22 19 11 7 55)
(68 80 57 58 59 60 61 62 63 64 65 66 67 78 46 45 36 34 26 23 16 12 6 1 56)
(69 81 67 58 59 60 61 62 63 64 65 66 68 79 56 47 46 45 37 35 27 24 17 13 7 2 57)
(70 82 68 78 59 60 61 62 63 64 65 66 69 80 57 56 48 47 46 38 36 34 28 25 18 14 8 3 58)
(71 83 69 79 60 61 62 63 64 65 66 70 81 58 57 56 49 48 47 39 37 35 29 26 23 19 15 9 4 59)
(72 84 70 80 61 62 63 64 65 66 71 82 59 58 57 56 50 49 48 40 38 36 30 27 24 20 16 12 10 5 60)
(73 85 71 81 62 63 64 65 66 72 83 60 59 58 57 56 51 50 49 41 39 37 31 28 25 21 17 13 11 6 1 61)
(74 86 72 82 63 64 65 66 73 84 61 60 59 58 57 56 52 51 50 42 40 38 32 29 26 22 18 14 7 2 62)
(75 87 73 83 64 65 66 74 85 62 61 60 59 58 57 56 53 52 51 43 41 39 33 30 27 19 15 8 3 63)
(76 88 74 84 65 66 75 86 63 62 61 60 59 58 57 56 54 53 52 44 42 40 31 28 20 16 9 4 64)
(77 75 85 66 76 87 64 63 62 61 60 59 58 57 56 55 54 53 43 41 32 29 21 17 10 5 65)
(76 86 77 88 65 64 63 62 61 60 59 58 57 56 55 54 44 42 33 30 22 18 11 6 66)
(79 68 69 70 71 72 73 74 75 76 77 78 57 56 47 45 37 34 27 23 17 12 7 1 67)
(80 78 69 70 71 72 73 74 75 76 77 79 67 58 57 56 48 46 38 35 28 24 18 13 8 2 68)
(81 79 70 71 72 73 74 75 76 77 80 68 67 59 58 57 49 47 45 39 36 29 25 19 14 9 3 69)
(82 80 71 72 73 74 75 76 77 81 69 68 67 60 59 58 50 48 46 40 37 34 30 26 20 15 10 4 70)
(83 81 72 73 74 75 76 77 82 70 69 68 67 61 60 59 51 49 47 41 38 35 31 27 23 21 16 11 5 71)
(84 82 73 74 75 76 77 83 71 70 69 68 67 62 61 60 52 50 48 42 39 36 32 28 24 22 17 12 6 72)
(85 83 74 75 76 77 84 72 71 70 69 68 67 63 62 61 53 51 49 43 40 37 33 29 25 18 13 7 1 73)
(86 84 75 76 77 85 73 72 71 70 69 68 67 64 63 62 54 52 50 44 41 38 30 26 19 14 8 2 74)
(87 85 76 77 86 74 73 72 71 70 69 68 67 65 64 63 55 53 51 42 39 31 27 20 15 9 3 75)
(88 86 77 87 75 74 73 72 71 70 69 68 67 66 65 64 54 52 43 40 32 28 21 16 10 4 76)
(87 88 76 75 74 73 72 71 70 69 68 67 66 65 55 53 44 41 33 29 22 17 11 5 77)
( 79 80 81 82 83 84 85 86 87 88 68 67 58 56 48 45 38 34 28 23 18 12 8 1 78)
( 80 81 82 83 84 85 86 87 88 78 69 68 67 59 57 49 46 39 35 29 24 19 13 9 2 79)
( 81 82 83 84 85 86 87 88 79 78 70 69 68 60 58 56 50 47 40 36 30 25 20 14 10 3 80)
( 82 83 84 85 86 87 88 80 79 78 71 70 69 61 59 57 51 48 45 41 37 31 26 21 15 11 4 81)
( 83 84 85 86 87 88 81 80 79 78 72 71 70 62 60 58 52 49 46 42 38 34 32 27 22 16 5 82)
( 84 85 86 87 88 82 81 80 79 78 73 72 71 63 61 59 53 50 47 43 39 35 33 28 23 17 6 83)
( 85 86 87 88 83 82 81 80 79 78 74 73 72 64 62 60 54 51 48 44 40 36 29 24 18 12 7 84)
( 86 87 88 84 83 82 81 80 79 78 75 74 73 65 63 61 55 52 49 41 37 30 25 19 13 8 1 85)
( 87 88 85 84 83 82 81 80 79 78 76 75 74 66 64 62 53 50 42 38 31 26 20 14 9 2 86)
( 88 86 85 84 83 82 81 80 79 78 77 76 75 65 63 54 51 43 39 32 27 21 15 10 3 87)
( 87 86 85 84 83 82 81 80 79 78 77 76 66 64 55 52 44 40 33 28 22 16 11 4 88)
)
